This is Ipopt version 3.13.2, running with linear solver mumps.
NOTE: Other linear solvers might be more efficient (see Ipopt documentation).

Number of nonzeros in equality constraint Jacobian...:   496868
Number of nonzeros in inequality constraint Jacobian.:  1031480
Number of nonzeros in Lagrangian Hessian.............:        0

Total number of variables............................:    16004
                     variables with only lower bounds:     1600
                variables with lower and upper bounds:     2400
                     variables with only upper bounds:        0
Total number of equality constraints.................:    11194
Total number of inequality constraints...............:    19200
        inequality constraints with only lower bounds:        0
   inequality constraints with lower and upper bounds:     9600
        inequality constraints with only upper bounds:     9600

iter    objective    inf_pr   inf_du lg(mu)  ||d||  lg(rg) alpha_du alpha_pr  ls
   0  1.0000000e+02 1.29e+00 9.90e+01  -3.0 0.00e+00    -  0.00e+00 0.00e+00   0
   1  1.0023520e+02 1.27e+00 9.77e+01  -3.0 5.97e+00    -  6.20e-02 1.34e-02h  3
   2  1.0029485e+02 1.26e+00 9.67e+01  -3.0 5.84e+00    -  1.90e-01 1.24e-02h  7
   3  9.1181651e+01 1.17e+00 7.31e+01  -3.0 5.28e+00    -  4.10e-02 2.43e-01f  1
   4  9.2220881e+01 1.15e+00 7.17e+01  -3.0 8.58e+00    -  7.66e-03 1.95e-02h  1
   5  9.2737425e+01 1.13e+00 7.04e+01  -3.0 9.62e+00    -  1.73e-02 1.74e-02h  1
   6  9.4992848e+01 1.08e+00 6.67e+01  -3.0 5.61e+00    -  2.66e-03 5.20e-02h  1
   7  9.8559780e+01 1.02e+00 6.25e+01  -3.0 3.15e+00    -  1.66e-02 6.27e-02h  1
   8  9.9288570e+01 1.01e+00 6.18e+01  -3.0 4.57e+00    -  3.60e-02 1.05e-02h  3
   9  9.9704669e+01 1.00e+00 6.17e+01  -3.0 1.64e+00    -  5.43e-02 4.07e-03h  5
iter    objective    inf_pr   inf_du lg(mu)  ||d||  lg(rg) alpha_du alpha_pr  ls
  10  9.9784154e+01 1.00e+00 6.16e+01  -3.0 1.59e+00    -  2.91e-02 7.84e-04h  8
  11  9.9794477e+01 1.00e+00 6.17e+01  -3.0 1.77e+00    -  3.04e-02 1.02e-04h 11
  12  9.9800122e+01 1.00e+00 6.17e+01  -3.0 1.63e+00    -  2.19e-02 5.62e-05h 12
  13  1.1308340e+02 7.94e-01 5.33e+01  -3.0 1.73e+00    -  1.79e-02 1.33e-01h  1
  14  1.2085587e+02 6.98e-01 4.83e+01  -3.0 1.52e+00    -  1.14e-01 9.22e-02h  1
  15  1.3237271e+02 5.69e-01 4.06e+01  -3.0 1.46e+00    -  1.25e-02 1.55e-01h  1
  16  1.5042652e+02 3.92e-01 2.82e+01  -3.0 1.36e+00    -  2.02e-01 2.99e-01h  1
  17  1.6668311e+02 2.29e-01 1.60e+01  -3.0 1.08e+00    -  1.69e-01 4.26e-01h  1
  18  1.8535121e+02 1.87e-01 6.60e+00  -3.0 6.65e-01    -  3.87e-01 1.00e+00h  1
  19  1.8153590e+02 1.37e-01 3.78e+00  -3.0 1.27e+00    -  3.83e-01 3.14e-01f  1
iter    objective    inf_pr   inf_du lg(mu)  ||d||  lg(rg) alpha_du alpha_pr  ls
  20  1.7872501e+02 1.39e-01 2.49e+00  -3.0 6.30e-01    -  3.31e-01 3.20e-01h  1
  21  1.6960861e+02 4.35e-01 3.41e+00  -3.0 8.20e-01    -  1.31e-01 8.20e-01f  1
  22  1.6445010e+02 2.17e-01 3.20e+00  -3.0 1.22e+00    -  1.31e-01 6.12e-01h  1
  23  1.5699211e+02 4.65e-01 2.96e+00  -3.0 9.23e-01    -  1.42e-01 1.00e+00f  1
  24  1.5193332e+02 3.10e-01 2.20e+00  -3.0 9.39e-01    -  2.55e-01 1.00e+00h  1
  25  1.4560045e+02 9.34e-01 1.59e+00  -3.0 1.65e+00    -  3.65e-01 8.63e-01h  1
  26  1.4143645e+02 1.07e+00 1.12e+00  -3.0 1.68e+00    -  3.28e-01 6.95e-01h  1
  27  1.3930906e+02 7.80e-01 8.17e-01  -3.0 8.10e-01    -  2.11e-01 3.85e-01h  1
  28  1.3636272e+02 4.80e-01 5.47e-01  -3.0 9.38e-01    -  1.64e-01 5.23e-01h  1
  29  1.3470228e+02 3.32e-01 6.68e-01  -3.0 1.30e+00    -  2.48e-01 3.45e-01h  1
iter    objective    inf_pr   inf_du lg(mu)  ||d||  lg(rg) alpha_du alpha_pr  ls
  30  1.3285815e+02 2.41e-01 2.23e-01  -3.0 1.17e+00    -  2.03e-01 4.48e-01h  1
  31  1.3060407e+02 2.89e-01 1.69e-01  -3.0 1.25e+00    -  3.19e-01 6.69e-01h  1
  32  1.2944617e+02 3.10e-01 1.20e-01  -3.0 9.78e-01    -  3.81e-01 5.49e-01h  1
  33  1.2850050e+02 2.26e-01 9.07e-02  -3.0 6.51e-01    -  6.19e-01 5.83e-01h  1
  34  1.2737513e+02 9.30e-02 9.63e-02  -3.0 5.78e-01    -  5.64e-01 8.58e-01h  1
  35  1.2704253e+02 1.36e-01 6.99e-02  -3.0 6.75e-01    -  9.58e-01 1.00e+00h  1
  36  1.2710424e+02 2.05e-02 5.58e-02  -3.0 3.38e-01    -  7.55e-01 1.00e+00h  1
  37  1.2715742e+02 5.09e-03 2.29e-02  -3.0 2.26e-01    -  9.99e-01 1.00e+00h  1
  38  1.2717641e+02 7.30e-04 9.97e-03  -3.0 1.34e-01    -  1.00e+00 1.00e+00h  1
  39  1.2720975e+02 1.35e-03 8.10e-03  -3.0 1.22e-01    -  1.00e+00 1.00e+00h  1
iter    objective    inf_pr   inf_du lg(mu)  ||d||  lg(rg) alpha_du alpha_pr  ls
  40  1.2347307e+02 1.53e-01 1.69e-01  -4.5 1.22e+00    -  6.61e-01 4.69e-01f  1
  41  1.2247548e+02 1.25e-01 1.05e-01  -4.5 7.21e-01    -  3.11e-01 3.34e-01h  1
  42  1.2152633e+02 7.51e-02 9.07e-02  -4.5 7.37e-01    -  5.33e-01 4.00e-01h  1
  43  1.2094072e+02 6.31e-02 6.30e-02  -4.5 8.69e-01    -  3.51e-01 3.29e-01h  1
  44  1.2034637e+02 1.55e-01 5.07e-02  -4.5 1.11e+00    -  3.57e-01 4.59e-01h  1
  45  1.2012061e+02 1.12e-01 3.02e-02  -4.5 6.28e-01    -  6.41e-01 3.43e-01h  1
  46  1.1994308e+02 7.56e-02 3.64e-02  -4.5 7.12e-01    -  4.82e-01 3.84e-01h  1
  47  1.1974072e+02 2.89e-02 3.27e-02  -4.5 5.99e-01    -  5.85e-01 7.61e-01h  1
  48  1.1968011e+02 5.62e-02 3.30e-02  -4.5 4.51e-01    -  5.26e-01 7.87e-01h  1
  49  1.1968080e+02 3.15e-02 2.94e-02  -4.5 1.82e-01    -  1.00e+00 4.82e-01h  1
iter    objective    inf_pr   inf_du lg(mu)  ||d||  lg(rg) alpha_du alpha_pr  ls
  50  1.1968648e+02 6.71e-03 9.15e-03  -4.5 1.21e-01    -  1.00e+00 1.00e+00h  1
  51  1.1968969e+02 1.07e-04 3.92e-03  -4.5 6.43e-02    -  1.00e+00 1.00e+00h  1
  52  1.1968495e+02 5.83e-05 1.37e-02  -4.5 2.04e-01    -  1.00e+00 1.00e+00H  1
  53  1.1967927e+02 9.99e-03 4.15e-02  -4.5 5.93e-01    -  1.00e+00 5.00e-01h  2
  54  1.1967686e+02 1.13e-02 1.50e-02  -4.5 1.53e-01    -  1.00e+00 1.00e+00h  1
  55  1.1968054e+02 1.41e-03 9.27e-03  -4.5 6.86e-02    -  1.00e+00 1.00e+00h  1
  56  1.1968204e+02 1.72e-05 1.47e-03  -4.5 3.00e-02    -  1.00e+00 1.00e+00h  1
  57  1.1968174e+02 6.93e-05 3.11e-03  -4.5 6.11e-02    -  1.00e+00 1.00e+00h  1
  58  1.1968099e+02 4.52e-05 9.67e-03  -4.5 1.65e-01    -  1.00e+00 1.00e+00H  1
  59  1.1968176e+02 6.59e-06 1.29e-02  -4.5 8.00e-02    -  1.00e+00 1.00e+00H  1
iter    objective    inf_pr   inf_du lg(mu)  ||d||  lg(rg) alpha_du alpha_pr  ls
  60  1.1967969e+02 7.50e-04 1.31e-03  -4.5 8.01e-02    -  1.00e+00 1.00e+00h  1
  61  1.1968071e+02 8.12e-06 1.69e-03  -4.5 2.31e-02    -  1.00e+00 1.00e+00h  1
  62  1.1968059e+02 1.47e-05 7.17e-04  -4.5 2.47e-02    -  1.00e+00 1.00e+00h  1
  63  1.1968039e+02 4.67e-05 4.01e-03  -4.5 5.44e-02    -  1.00e+00 1.00e+00h  1
  64  1.1968029e+02 5.63e-06 1.22e-03  -4.5 1.91e-02    -  1.00e+00 1.00e+00h  1
  65  1.1968033e+02 4.83e-07 4.63e-04  -4.5 6.24e-03    -  1.00e+00 1.00e+00h  1
  66  1.1968028e+02 2.33e-06 3.78e-04  -4.5 1.71e-02    -  1.00e+00 1.00e+00h  1
  67  1.1968019e+02 1.03e-06 2.21e-03  -4.5 1.18e-01    -  1.00e+00 1.00e+00H  1
  68  1.1968017e+02 2.75e-05 8.34e-04  -4.5 4.41e-02    -  1.00e+00 1.00e+00h  1
  69  1.1968014e+02 5.87e-05 9.23e-04  -4.5 6.58e-02    -  1.00e+00 1.00e+00h  1
iter    objective    inf_pr   inf_du lg(mu)  ||d||  lg(rg) alpha_du alpha_pr  ls
  70  1.1968017e+02 3.10e-05 1.77e-03  -4.5 1.65e-02    -  1.00e+00 5.00e-01h  2
  71  1.1968024e+02 5.69e-06 2.13e-04  -4.5 2.09e-02    -  1.00e+00 1.00e+00h  1
  72  1.1951312e+02 4.61e-04 4.73e-03  -6.8 5.78e-01    -  5.84e-01 5.53e-01f  1
  73  1.1944300e+02 3.98e-03 9.41e-03  -6.8 7.87e-01    -  3.05e-01 4.19e-01h  1
  74  1.1942540e+02 3.58e-03 1.76e-02  -6.8 6.23e-01    -  4.95e-01 1.84e-01h  1
  75  1.1939911e+02 8.44e-03 1.23e-02  -6.8 4.07e-01    -  2.00e-01 3.48e-01h  1
  76  1.1938644e+02 6.21e-03 8.39e-03  -6.8 5.38e-01    -  3.91e-01 2.52e-01h  1
  77  1.1937974e+02 4.91e-03 7.12e-03  -6.8 4.17e-01    -  4.25e-01 1.94e-01h  1
  78  1.1936921e+02 2.80e-03 1.15e-02  -6.8 3.86e-01    -  4.41e-01 3.95e-01h  1
  79  1.1936394e+02 3.33e-03 4.51e-03  -6.8 3.80e-01    -  3.12e-01 3.11e-01h  1
iter    objective    inf_pr   inf_du lg(mu)  ||d||  lg(rg) alpha_du alpha_pr  ls
  80  1.1936246e+02 2.97e-03 6.99e-03  -6.8 2.20e-01    -  4.68e-01 1.22e-01h  1
  81  1.1935911e+02 2.71e-03 1.26e-02  -6.8 1.28e-01    -  3.31e-01 3.59e-01h  1
  82  1.1935801e+02 2.17e-03 9.85e-03  -6.8 8.29e-02    -  3.97e-01 2.16e-01h  1
  83  1.1935658e+02 2.12e-03 4.80e-03  -6.8 1.29e-01    -  4.59e-01 3.11e-01h  1
  84  1.1935606e+02 1.69e-03 5.16e-03  -6.8 6.48e-02    -  5.81e-01 2.15e-01h  1
  85  1.1935523e+02 9.40e-04 5.14e-03  -6.8 7.66e-02    -  8.60e-01 4.54e-01h  1
  86  1.1935496e+02 7.22e-04 4.55e-03  -6.8 6.93e-02    -  7.06e-01 2.67e-01h  1
  87  1.1935464e+02 4.29e-04 2.82e-03  -6.8 5.93e-02    -  7.30e-01 5.34e-01h  1
  88  1.1935446e+02 4.09e-04 3.03e-03  -6.8 1.20e-01    -  6.72e-01 3.84e-01h  1
  89  1.1935420e+02 4.24e-04 2.33e-03  -6.8 1.58e-01    -  3.18e-01 5.29e-01f  1
iter    objective    inf_pr   inf_du lg(mu)  ||d||  lg(rg) alpha_du alpha_pr  ls
  90  1.1935411e+02 2.76e-04 3.88e-03  -6.8 6.58e-02    -  5.75e-01 4.05e-01f  1
  91  1.1935407e+02 1.76e-04 8.46e-04  -6.8 4.08e-02    -  4.43e-01 3.98e-01f  1
  92  1.1935414e+02 1.10e-04 2.21e-03  -6.8 2.38e-02    -  1.00e+00 8.83e-01h  1
  93  1.1935415e+02 7.05e-05 2.13e-03  -6.8 2.74e-02    -  1.00e+00 8.29e-01h  1
  94  1.1935407e+02 1.16e-04 3.43e-03  -6.8 6.80e-02    -  3.39e-01 9.18e-01f  1
  95  1.1935402e+02 6.80e-05 1.74e-03  -6.8 9.34e-02    -  9.63e-01 5.34e-01f  1
  96  1.1935396e+02 2.26e-04 3.72e-03  -6.8 1.71e-01    -  6.74e-01 2.13e-01f  1
  97  1.1935388e+02 9.81e-05 3.38e-03  -6.8 2.02e-01    -  3.25e-01 2.77e-01f  1
  98  1.1935385e+02 6.89e-04 2.54e-03  -6.8 2.00e-01    -  3.87e-01 2.61e-01h  1
  99  1.1935377e+02 1.95e-04 2.79e-03  -6.8 3.12e-01    -  2.67e-01 4.10e-01f  1
iter    objective    inf_pr   inf_du lg(mu)  ||d||  lg(rg) alpha_du alpha_pr  ls
 100  1.1935374e+02 1.79e-04 2.34e-03  -6.8 3.47e-01    -  5.64e-01 1.05e-01f  1
 101  1.1935368e+02 1.68e-04 2.81e-03  -6.8 5.95e-01    -  2.78e-01 1.21e-01h  1
 102  1.1935359e+02 2.81e-03 3.51e-03  -6.8 8.47e-01    -  2.49e-01 9.89e-02h  1
 103  1.1935354e+02 6.21e-04 2.15e-03  -6.8 2.66e-01    -  3.08e-01 4.63e-01f  1
 104  1.1935352e+02 1.95e-04 3.13e-03  -6.8 1.15e-01    -  3.42e-01 7.82e-01h  1
 105  1.1935352e+02 2.48e-04 2.54e-03  -6.8 6.07e-02    -  8.61e-01 4.43e-01f  1
 106  1.1935358e+02 1.22e-04 4.46e-03  -6.8 1.23e-02    -  1.00e+00 6.44e-01h  1
 107  1.1935359e+02 1.18e-04 6.09e-03  -6.8 2.03e-02    -  1.00e+00 3.12e-02f  6
 108  1.1935360e+02 7.14e-05 3.04e-03  -6.8 1.57e-01    -  1.00e+00 4.09e-01h  1
 109  1.1935356e+02 6.12e-05 3.99e-03  -6.8 7.96e-01    -  5.32e-01 1.39e-01h  2
iter    objective    inf_pr   inf_du lg(mu)  ||d||  lg(rg) alpha_du alpha_pr  ls
 110  1.1935352e+02 1.84e-04 3.47e-03  -6.8 6.17e-01    -  6.34e-01 1.79e-01h  1
 111  1.1935352e+02 2.40e-04 2.59e-03  -6.8 2.75e-02    -  1.00e+00 6.86e-01h  1
 112  1.1935348e+02 1.79e-04 3.79e-03  -6.8 1.82e-02    -  3.36e-01 8.09e-01f  1
 113  1.1935349e+02 1.69e-04 7.78e-03  -6.8 1.34e-02    -  9.28e-01 5.80e-02f  5
 114  1.1935352e+02 4.14e-05 1.26e-03  -6.8 1.50e-02    -  9.55e-01 7.56e-01h  1
 115  1.1935352e+02 3.32e-05 9.13e-04  -6.8 2.50e-02    -  7.75e-01 2.50e-01h  3
 116  1.1935339e+02 3.78e-04 8.22e-03  -6.8 2.32e-01    -  1.00e+00 8.45e-01h  1
 117  1.1935312e+02 2.68e-03 1.03e-02  -6.8 7.91e-01    -  4.44e-01 3.10e-01h  1
 118  1.1935282e+02 2.17e-03 7.72e-03  -6.8 1.33e-01    -  2.61e-01 2.27e-01h  1
 119  1.1935285e+02 7.33e-04 7.72e-03  -6.8 1.31e-01    -  1.67e-01 9.65e-01h  1
iter    objective    inf_pr   inf_du lg(mu)  ||d||  lg(rg) alpha_du alpha_pr  ls
 120  1.1935272e+02 1.22e-03 8.70e-03  -6.8 2.22e-01    -  7.33e-02 1.83e-01h  1
 121  1.1935298e+02 6.26e-04 3.00e-03  -6.8 4.42e-02    -  7.87e-01 5.44e-01h  1
 122  1.1935301e+02 5.78e-04 4.98e-03  -6.8 6.31e-02    -  7.53e-02 3.07e-01h  1
 123  1.1935339e+02 1.28e-04 3.17e+00  -6.8 1.43e-02    -  2.58e-04 1.00e+00h  1
 124  1.1935341e+02 6.36e-05 1.26e-03  -6.8 1.24e-02    -  1.00e+00 1.00e+00h  1
 125  1.1935341e+02 6.33e-06 3.91e-04  -6.8 3.73e-03    -  1.00e+00 1.00e+00h  1
 126  1.1935342e+02 4.19e-08 1.94e-04  -6.8 8.76e-04    -  1.00e+00 1.00e+00h  1
 127  1.1935341e+02 2.68e-08 1.56e-03  -6.8 1.24e-02    -  1.00e+00 1.00e+00H  1
 128  1.1935350e+02 8.55e-09 6.85e-03  -6.8 2.55e-02    -  1.00e+00 1.00e+00H  1
 129  1.1935332e+02 3.16e-04 3.42e-04  -6.8 2.23e-02    -  1.00e+00 1.00e+00h  1
iter    objective    inf_pr   inf_du lg(mu)  ||d||  lg(rg) alpha_du alpha_pr  ls
 130  1.1935336e+02 1.57e-04 1.15e-03  -6.8 5.41e-03    -  1.00e+00 5.00e-01h  2
 131  1.1935341e+02 2.80e-07 7.89e-05  -6.8 1.63e-03    -  1.00e+00 1.00e+00h  1
 132  1.1935341e+02 1.88e-07 1.05e-04  -6.8 1.37e-03    -  1.00e+00 1.00e+00h  1
 133  1.1935341e+02 6.92e-08 5.06e-04  -6.8 1.59e-02    -  1.00e+00 1.00e+00H  1
 134  1.1935341e+02 3.05e-07 3.53e-03  -6.8 7.31e-02    -  1.00e+00 3.12e-02h  6
 135  1.1935341e+02 1.26e-08 6.00e-04  -6.8 7.57e-03    -  1.00e+00 1.00e+00H  1
 136  1.1935340e+02 1.06e-05 4.70e-04  -6.8 5.26e-03    -  1.00e+00 1.00e+00h  1
 137  1.1935340e+02 2.86e-06 5.80e-04  -6.8 3.73e-03    -  1.00e+00 1.00e+00h  1
 138  1.1935340e+02 1.54e-06 5.14e-04  -6.8 2.50e-03    -  1.00e+00 1.00e+00h  1
 139  1.1935340e+02 1.45e-07 3.36e-04  -6.8 1.71e-03    -  1.00e+00 1.00e+00h  1
iter    objective    inf_pr   inf_du lg(mu)  ||d||  lg(rg) alpha_du alpha_pr  ls
 140  1.1935340e+02 1.48e-07 2.98e-04  -6.8 1.67e-03    -  1.00e+00 1.00e+00h  1
 141  1.1935340e+02 1.49e-07 3.23e-04  -6.8 1.72e-03    -  1.00e+00 1.00e+00h  1
 142  1.1935340e+02 7.53e-10 3.89e-04  -6.8 3.41e-03    -  1.00e+00 1.00e+00H  1
 143  1.1935340e+02 1.34e-06 2.24e-04  -6.8 2.68e-03    -  1.00e+00 1.00e+00h  1
 144  1.1935340e+02 4.99e-07 2.88e-04  -6.8 2.99e-03    -  1.00e+00 1.00e+00h  1
 145  1.1935340e+02 2.82e-07 1.75e-04  -6.8 2.28e-03    -  1.00e+00 1.00e+00h  1
 146  1.1935340e+02 9.64e-10 1.07e-04  -6.8 2.70e-03    -  1.00e+00 1.00e+00H  1
 147  1.1935340e+02 2.53e-07 5.17e-05  -6.8 2.09e-03    -  1.00e+00 1.00e+00h  1
 148  1.1935340e+02 6.85e-07 1.12e-04  -6.8 3.37e-03    -  1.00e+00 1.00e+00h  1
 149  1.1935340e+02 2.04e-07 2.27e-04  -6.8 1.79e-03    -  1.00e+00 1.00e+00h  1
iter    objective    inf_pr   inf_du lg(mu)  ||d||  lg(rg) alpha_du alpha_pr  ls
 150  1.1935340e+02 2.02e-07 2.58e-04  -6.8 1.84e-03    -  1.00e+00 1.00e+00h  1
 151  1.1935340e+02 5.28e-10 1.46e-04  -6.8 2.28e-03    -  1.00e+00 1.00e+00H  1
 152  1.1935340e+02 1.62e-10 2.62e-04  -6.8 6.38e-03    -  1.00e+00 1.00e+00H  1
 153  1.1935340e+02 1.27e-06 3.93e-04  -6.8 4.32e-03    -  1.00e+00 1.00e+00h  1
 154  1.1935340e+02 9.98e-08 3.19e-04  -6.8 2.81e-03    -  1.00e+00 1.00e+00h  1
 155  1.1935340e+02 1.61e-07 1.54e-04  -6.8 1.63e-03    -  1.00e+00 1.00e+00h  1
 156  1.1935340e+02 5.97e-10 3.93e-05  -6.8 2.88e-03    -  1.00e+00 1.00e+00H  1
 157  1.1935340e+02 2.95e-07 5.65e-04  -6.8 6.61e-02    -  1.00e+00 3.12e-02h  6
 158  1.1935340e+02 4.09e-07 1.03e-03  -6.8 1.62e-01    -  1.00e+00 7.81e-03h  8
 159  1.1935340e+02 4.87e-07 1.22e-03  -6.8 1.33e-01    -  1.00e+00 7.81e-03h  8
iter    objective    inf_pr   inf_du lg(mu)  ||d||  lg(rg) alpha_du alpha_pr  ls
 160  1.1935340e+02 5.31e-07 2.16e-03  -6.8 1.97e-01    -  1.00e+00 3.91e-03h  9
 161  1.1935340e+02 5.50e-07 1.64e-03  -6.8 6.82e-02    -  1.00e+00 7.81e-03h  8
 162  1.1935339e+02 3.95e-03 3.11e-03  -6.8 2.23e-01    -  1.00e+00 1.00e+00h  1
 163  1.1935331e+02 1.82e-04 1.23e-03  -6.8 3.81e-02    -  1.00e+00 1.00e+00h  1
 164  1.1935325e+02 6.16e-03 2.31e-03  -6.8 2.84e-01    -  4.91e-01 1.00e+00h  1
 165  1.1935304e+02 1.52e-02 6.98e-03  -6.8 7.59e-01    -  3.35e-01 4.95e-01h  1
 166  1.1935232e+02 1.25e-02 4.88e-03  -6.8 4.38e-01    -  2.93e-01 7.24e-01h  1
 167  1.1935162e+02 1.77e-02 4.29e-03  -6.8 2.06e+00    -  1.03e-01 1.40e-01h  1
 168  1.1935173e+02 1.32e-02 2.90e-02  -6.8 4.59e-01    -  3.30e-01 4.23e-01h  1
 169  1.1935179e+02 6.66e-03 6.39e-03  -6.8 2.39e-01    -  3.77e-01 6.52e-01h  1
iter    objective    inf_pr   inf_du lg(mu)  ||d||  lg(rg) alpha_du alpha_pr  ls
 170  1.1935209e+02 4.64e-03 1.38e-02  -6.8 2.14e-01    -  3.02e-02 3.95e-01h  1
 171  1.1935312e+02 1.80e-03 5.46e-03  -6.8 5.31e-02    -  9.48e-01 1.00e+00h  1
 172  1.1935335e+02 8.79e-05 1.08e-03  -6.8 1.21e-02    -  1.00e+00 1.00e+00h  1
 173  1.1935340e+02 2.51e-07 2.72e-04  -6.8 1.84e-03    -  1.00e+00 1.00e+00h  1
 174  1.1935340e+02 1.64e-08 1.03e-04  -6.8 6.47e-04    -  1.00e+00 1.00e+00h  1
 175  1.1935340e+02 5.89e-08 8.93e-05  -6.8 7.07e-04    -  1.00e+00 1.00e+00h  1
 176  1.1935340e+02 2.16e-09 1.77e-04  -6.8 2.85e-03    -  1.00e+00 1.00e+00H  1
 177  1.1935340e+02 6.55e-09 4.47e-04  -6.8 4.04e-03    -  1.00e+00 1.00e+00H  1
 178  1.1935340e+02 8.82e-08 2.65e-04  -6.8 1.49e-03    -  1.00e+00 1.00e+00h  1
 179  1.1935340e+02 4.22e-08 8.84e-05  -6.8 1.37e-03    -  1.00e+00 1.00e+00h  1
iter    objective    inf_pr   inf_du lg(mu)  ||d||  lg(rg) alpha_du alpha_pr  ls
 180  1.1935340e+02 8.85e-09 6.95e-05  -6.8 5.48e-04    -  1.00e+00 1.00e+00h  1
 181  1.1935340e+02 1.40e-09 6.04e-05  -6.8 1.85e-03    -  1.00e+00 1.00e+00H  1
 182  1.1935340e+02 9.55e-10 9.34e-04  -6.8 1.49e-02    -  1.00e+00 1.00e+00H  1
 183  1.1935339e+02 6.13e-06 4.96e-04  -6.8 8.30e-03    -  1.00e+00 1.00e+00h  1
 184  1.1935339e+02 4.95e-06 3.55e-04  -6.8 1.49e-02    -  1.00e+00 5.00e-01h  2
 185  1.1935339e+02 7.55e-07 3.80e-04  -6.8 2.13e-03    -  1.00e+00 1.00e+00h  1
 186  1.1935340e+02 5.56e-10 2.85e-04  -6.8 3.01e-03    -  1.00e+00 1.00e+00H  1
 187  1.1935340e+02 2.32e-08 2.21e-04  -6.8 6.76e-04    -  1.00e+00 1.00e+00h  1
 188  1.1935340e+02 1.11e-08 1.04e-05  -6.8 4.89e-04    -  1.00e+00 1.00e+00h  1
 189  1.1935340e+02 1.46e-09 3.37e-06  -6.8 1.49e-04    -  1.00e+00 1.00e+00h  1
iter    objective    inf_pr   inf_du lg(mu)  ||d||  lg(rg) alpha_du alpha_pr  ls
 190  1.1935340e+02 9.00e-10 4.02e-05  -6.8 2.34e-03    -  1.00e+00 1.00e+00H  1
 191  1.1935340e+02 2.09e-10 1.33e-03  -6.8 3.91e-02    -  1.00e+00 1.00e+00H  1
 192  1.1935339e+02 1.68e-05 3.84e-04  -6.8 1.61e-02    -  1.00e+00 1.00e+00h  1
 193  1.1935339e+02 1.50e-05 6.60e-04  -6.8 2.02e-02    -  1.00e+00 5.00e-01h  2
 194  1.1935339e+02 2.10e-06 1.61e-04  -6.8 4.74e-03    -  1.00e+00 1.00e+00h  1
 195  1.1935339e+02 1.16e-06 1.79e-04  -6.8 5.20e-03    -  1.00e+00 5.00e-01h  2
 196  1.1935340e+02 8.78e-09 1.55e-04  -6.8 6.86e-03    -  1.00e+00 1.00e+00H  1
 197  1.1935340e+02 8.03e-09 1.84e-04  -6.8 1.42e-02    -  1.00e+00 1.00e+00H  1
 198  1.1935339e+02 4.35e-07 5.06e-04  -6.8 2.10e-02    -  1.00e+00 1.25e-01h  4
 199  1.1935340e+02 2.49e-10 5.93e-04  -6.8 7.44e-03    -  1.00e+00 1.00e+00H  1
iter    objective    inf_pr   inf_du lg(mu)  ||d||  lg(rg) alpha_du alpha_pr  ls
 200  1.1935339e+02 2.55e-06 4.39e-04  -6.8 2.78e-03    -  1.00e+00 1.00e+00h  1
 201  1.1935339e+02 4.73e-09 2.62e-04  -6.8 9.27e-03    -  1.00e+00 1.00e+00H  1
 202  1.1935340e+02 9.05e-10 1.12e-03  -6.8 4.96e-02    -  1.00e+00 1.00e+00H  1
 203  1.1935339e+02 2.25e-05 2.09e-04  -6.8 1.87e-02    -  1.00e+00 1.00e+00h  1
 204  1.1935338e+02 7.46e-05 1.53e-03  -6.8 1.20e-02    -  1.00e+00 1.00e+00h  1
 205  1.1935338e+02 4.36e-05 5.66e-05  -6.8 9.53e-03    -  1.00e+00 1.00e+00h  1
 206  1.1935339e+02 8.41e-07 1.06e-04  -6.8 3.65e-03    -  1.00e+00 1.00e+00h  1
 207  1.1935339e+02 8.86e-08 9.76e-05  -6.8 2.64e-02    -  1.00e+00 1.00e+00H  1
 208  1.1935339e+02 9.86e-08 6.41e-04  -6.8 5.32e-02    -  1.00e+00 3.12e-02h  6
 209  1.1935339e+02 6.14e-10 9.50e-04  -6.8 9.51e-03    -  1.00e+00 1.00e+00H  1
iter    objective    inf_pr   inf_du lg(mu)  ||d||  lg(rg) alpha_du alpha_pr  ls
 210  1.1935339e+02 2.11e-07 5.66e-04  -6.8 1.16e-02    -  1.00e+00 1.00e+00H  1
 211  1.1935340e+02 1.30e-09 1.19e-03  -6.8 9.33e-03    -  1.00e+00 1.00e+00H  1
 212  1.1935339e+02 1.93e-06 6.99e-05  -6.8 8.39e-03    -  1.00e+00 1.00e+00h  1
 213  1.1935339e+02 4.11e-08 8.74e-05  -6.8 1.14e-03    -  1.00e+00 1.00e+00h  1
 214  1.1935339e+02 3.41e-08 1.10e-05  -6.8 8.07e-04    -  1.00e+00 1.00e+00h  1
 215  1.1935339e+02 1.30e-09 1.05e-05  -6.8 1.52e-04    -  1.00e+00 1.00e+00h  1
 216  1.1935339e+02 6.22e-10 1.10e-04  -6.8 4.33e-03    -  1.00e+00 1.00e+00H  1
 217  1.1935339e+02 3.38e-06 5.00e-04  -6.8 1.56e-02    -  1.00e+00 5.00e-01h  2
 218  1.1935339e+02 2.65e-06 4.52e-04  -6.8 5.68e-03    -  1.00e+00 1.00e+00h  1
 219  1.1935339e+02 2.11e-06 4.20e-04  -6.8 7.36e-03    -  1.00e+00 1.00e+00h  1
iter    objective    inf_pr   inf_du lg(mu)  ||d||  lg(rg) alpha_du alpha_pr  ls
 220  1.1935339e+02 1.38e-06 2.33e-04  -6.8 5.78e-03    -  1.00e+00 1.00e+00h  1
 221  1.1935339e+02 1.74e-06 4.17e-04  -6.8 5.68e-03    -  1.00e+00 1.00e+00h  1
 222  1.1935339e+02 9.27e-07 9.29e-05  -6.8 5.11e-03    -  1.00e+00 1.00e+00h  1
 223  1.1935339e+02 4.17e-08 1.91e-04  -6.8 1.41e-03    -  1.00e+00 1.00e+00h  1
 224  1.1935339e+02 3.15e-08 1.81e-05  -6.8 9.52e-04    -  1.00e+00 1.00e+00h  1
 225  1.1935339e+02 4.20e-10 9.13e-06  -6.8 1.10e-04    -  1.00e+00 1.00e+00h  1
 226  1.1935339e+02 4.30e-11 5.45e-06  -6.8 1.55e-04    -  1.00e+00 1.00e+00H  1
 227  1.1935339e+02 4.55e-11 1.80e-04  -6.8 8.62e-03    -  1.00e+00 1.00e+00H  1
 228  1.1935339e+02 4.55e-11 2.04e-04  -6.8 9.30e-03    -  1.00e+00 4.66e-10h 32
 229  1.1935339e+02 1.23e-07 2.12e-04  -6.8 1.90e-03    -  1.00e+00 1.00e+00h  1
iter    objective    inf_pr   inf_du lg(mu)  ||d||  lg(rg) alpha_du alpha_pr  ls
 230  1.1935339e+02 5.06e-08 1.61e-04  -6.8 1.24e-03    -  1.00e+00 1.00e+00h  1
 231  1.1935339e+02 4.28e-08 1.12e-04  -6.8 1.10e-03    -  1.00e+00 1.00e+00h  1
 232  1.1935339e+02 5.12e-11 6.64e-05  -6.8 1.78e-03    -  1.00e+00 1.00e+00H  1
 233  1.1935339e+02 2.03e-09 7.75e-05  -6.8 2.62e-03    -  1.00e+00 1.00e+00H  1
 234  1.1935339e+02 2.92e-08 1.15e-04  -6.8 8.97e-04    -  1.00e+00 1.00e+00h  1
 235  1.1935339e+02 8.23e-09 2.52e-05  -6.8 4.89e-04    -  1.00e+00 1.00e+00h  1
 236  1.1935339e+02 2.56e-08 3.38e-05  -6.8 9.62e-04    -  1.00e+00 1.00e+00h  1
 237  1.1935339e+02 2.61e-08 8.24e-05  -6.8 2.23e-02    -  1.00e+00 7.81e-03h  8
 238  1.1935339e+02 2.63e-08 1.71e-04  -6.8 6.30e-02    -  1.00e+00 1.95e-03h 10
 239  1.1935339e+02 2.63e-08 1.36e-04  -6.8 3.45e-02    -  1.00e+00 1.95e-03h 10
iter    objective    inf_pr   inf_du lg(mu)  ||d||  lg(rg) alpha_du alpha_pr  ls
 240  1.1935339e+02 2.64e-08 7.99e-05  -6.8 2.51e-02    -  1.00e+00 3.91e-03h  9
 241  1.1935339e+02 2.64e-08 1.28e-04  -6.8 5.37e-02    -  1.00e+00 9.77e-04h 11
 242  1.1935339e+02 7.52e-05 4.52e-04  -6.8 7.82e-02    -  1.00e+00 1.00e+00h  1
 243  1.1935338e+02 2.74e-05 2.89e-04  -6.8 4.71e-02    -  1.00e+00 1.00e+00h  1
 244  1.1935337e+02 2.32e-04 4.48e-03  -6.8 1.39e-01    -  1.00e+00 1.00e+00h  1
 245  1.1935321e+02 1.97e-04 2.31e-04  -6.8 1.13e-01    -  1.00e+00 1.00e+00h  1
 246  1.1935337e+02 1.38e-04 1.53e-03  -6.8 7.79e-02    -  6.21e-01 1.00e+00h  1
 247  1.1935335e+02 1.48e-04 3.36e-04  -6.8 5.58e-02    -  1.00e+00 1.00e+00h  1
 248  1.1935337e+02 6.80e-05 2.31e-03  -6.8 3.34e-02    -  1.00e+00 1.00e+00h  1
 249  1.1935335e+02 5.94e-05 4.96e-04  -6.8 2.83e-02    -  1.00e+00 1.00e+00h  1
iter    objective    inf_pr   inf_du lg(mu)  ||d||  lg(rg) alpha_du alpha_pr  ls
 250  1.1935339e+02 2.86e-06 8.93e-04  -6.8 2.88e-03    -  1.00e+00 1.00e+00h  1
 251  1.1935339e+02 8.43e-08 5.88e-05  -6.8 1.94e-03    -  1.00e+00 1.00e+00h  1
 252  1.1935339e+02 1.19e-10 1.18e-05  -6.8 3.96e-05    -  1.00e+00 1.00e+00h  1
 253  1.1935339e+02 5.67e-10 1.08e-05  -6.8 1.02e-04    -  1.00e+00 1.00e+00h  1
 254  1.1935339e+02 2.89e-08 2.87e-05  -6.8 6.55e-04    -  1.00e+00 1.00e+00h  1
 255  1.1935339e+02 1.54e-09 3.55e-05  -6.8 6.32e-04    -  1.00e+00 1.00e+00H  1
 256  1.1935339e+02 9.74e-09 2.87e-05  -6.8 6.07e-04    -  1.00e+00 1.00e+00h  1
 257  1.1935339e+02 7.27e-09 4.34e-05  -6.8 3.42e-04    -  1.00e+00 1.00e+00h  1
 258  1.1935339e+02 1.73e-09 1.96e-05  -6.8 1.48e-04    -  1.00e+00 1.00e+00h  1
 259  1.1935339e+02 1.38e-09 1.37e-05  -6.8 1.51e-04    -  1.00e+00 1.00e+00h  1
iter    objective    inf_pr   inf_du lg(mu)  ||d||  lg(rg) alpha_du alpha_pr  ls
 260  1.1935339e+02 8.66e-11 7.41e-06  -6.8 5.71e-05    -  1.00e+00 1.00e+00h  1
 261  1.1935339e+02 5.50e-11 1.90e-06  -6.8 9.81e-05    -  1.00e+00 1.00e+00H  1
 262  1.1935339e+02 1.99e-10 1.11e-05  -6.8 1.23e-03    -  1.00e+00 1.00e+00H  1
 263  1.1935339e+02 2.42e-10 1.09e-04  -6.8 1.16e-02    -  1.00e+00 1.00e+00H  1
 264  1.1935339e+02 2.45e-10 1.09e-04  -6.8 5.36e-03    -  1.00e+00 1.86e-09h 30
 265  1.1935339e+02 5.53e-11 5.60e-05  -6.8 8.70e-03    -  1.00e+00 1.00e+00H  1
 266  1.1935339e+02 5.84e-11 5.48e-04  -6.8 2.33e-02    -  1.00e+00 4.66e-10h 32
 267  1.1935339e+02 1.25e-07 1.03e-04  -6.8 1.36e-03    -  1.00e+00 1.00e+00h  1
 268  1.1935339e+02 1.28e-07 2.35e-05  -6.8 2.00e-03    -  1.00e+00 1.00e+00h  1
 269  1.1935339e+02 3.67e-09 1.95e-05  -6.8 3.14e-04    -  1.00e+00 1.00e+00h  1
iter    objective    inf_pr   inf_du lg(mu)  ||d||  lg(rg) alpha_du alpha_pr  ls
 270  1.1935339e+02 1.35e-09 4.19e-06  -6.8 1.89e-04    -  1.00e+00 1.00e+00h  1
 271  1.1935339e+02 4.55e-11 3.45e-06  -6.8 2.12e-05    -  1.00e+00 1.00e+00h  1
 272  1.1935339e+02 8.31e-11 4.14e-06  -6.8 1.18e-04    -  1.00e+00 1.00e+00h  1
 273  1.1935339e+02 3.11e-10 1.83e-04  -6.8 2.75e-03    -  1.00e+00 1.00e+00H  1
 274  1.1935339e+02 1.51e-08 8.17e-05  -6.8 8.62e-04    -  1.00e+00 1.00e+00h  1
 275  1.1935339e+02 2.37e-09 9.36e-05  -6.8 6.85e-04    -  1.00e+00 1.00e+00h  1
 276  1.1935339e+02 9.42e-10 2.58e-05  -6.8 3.05e-04    -  1.00e+00 1.00e+00h  1
 277  1.1935339e+02 4.50e-10 4.70e-06  -6.8 1.68e-04    -  1.00e+00 1.00e+00h  1
 278  1.1935339e+02 6.32e-11 2.51e-06  -6.8 6.52e-05    -  1.00e+00 1.00e+00h  1
 279  1.1935339e+02 5.05e-11 1.06e-06  -6.8 8.84e-05    -  1.00e+00 1.00e+00h  1
iter    objective    inf_pr   inf_du lg(mu)  ||d||  lg(rg) alpha_du alpha_pr  ls
 280  1.1935257e+02 6.60e-07 1.47e-04  -7.0 5.89e-03    -  1.00e+00 1.00e+00f  1
 281  1.1935257e+02 1.48e-06 2.11e-04  -7.0 3.52e-03    -  1.00e+00 1.00e+00h  1
 282  1.1935257e+02 3.30e-06 2.05e-04  -7.0 2.75e-03    -  1.00e+00 1.00e+00h  1
 283  1.1935257e+02 1.23e-08 9.01e-05  -7.0 1.14e-03    -  1.00e+00 1.00e+00h  1
 284  1.1935257e+02 1.93e-08 4.34e-05  -7.0 1.24e-03    -  1.00e+00 1.00e+00h  1
 285  1.1935257e+02 1.40e-08 9.24e-04  -7.0 1.50e-02    -  1.00e+00 1.00e+00H  1
 286  1.1935256e+02 1.19e-05 5.68e-04  -7.0 4.56e-03    -  1.00e+00 1.00e+00h  1
 287  1.1935257e+02 4.54e-10 2.19e-04  -7.0 6.02e-03    -  1.00e+00 1.00e+00H  1
 288  1.1935257e+02 1.18e-07 1.96e-04  -7.0 1.44e-03    -  1.00e+00 1.00e+00h  1
 289  1.1935257e+02 4.92e-08 7.70e-05  -7.0 1.36e-03    -  1.00e+00 1.00e+00h  1
iter    objective    inf_pr   inf_du lg(mu)  ||d||  lg(rg) alpha_du alpha_pr  ls
 290  1.1935257e+02 1.35e-08 8.48e-05  -7.0 1.16e-03    -  1.00e+00 1.00e+00h  1
 291  1.1935256e+02 8.16e-09 1.90e-04  -7.0 9.88e-03    -  1.00e+00 1.00e+00H  1
 292  1.1935257e+02 3.58e-09 6.74e-04  -7.0 2.28e-02    -  1.00e+00 1.00e+00H  1
 293  1.1935255e+02 2.03e-05 7.09e-04  -7.0 7.38e-03    -  1.00e+00 1.00e+00h  1
 294  1.1935256e+02 4.22e-05 2.31e-03  -7.0 1.08e-02    -  1.00e+00 1.00e+00h  1
 295  1.1935256e+02 2.60e-05 3.23e-04  -7.0 7.30e-03    -  1.00e+00 1.00e+00h  1
 296  1.1935256e+02 6.51e-08 2.57e-04  -7.0 1.43e-03    -  1.00e+00 1.00e+00h  1
 297  1.1935256e+02 2.84e-08 2.27e-05  -7.0 7.78e-04    -  1.00e+00 1.00e+00h  1
 298  1.1935256e+02 4.36e-09 1.63e-05  -7.0 3.41e-04    -  1.00e+00 1.00e+00h  1
 299  1.1935256e+02 2.96e-10 3.07e-05  -7.0 3.18e-03    -  1.00e+00 1.00e+00H  1
iter    objective    inf_pr   inf_du lg(mu)  ||d||  lg(rg) alpha_du alpha_pr  ls
 300  1.1935258e+02 6.06e-10 1.90e-03  -7.0 5.04e-02    -  1.00e+00 1.00e+00H  1
 301  1.1935255e+02 5.43e-05 5.63e-04  -7.0 1.94e-02    -  1.00e+00 1.00e+00h  1
 302  1.1935253e+02 1.47e-04 2.83e-03  -7.0 4.54e-02    -  7.04e-01 1.00e+00h  1
 303  1.1935251e+02 1.69e-04 9.88e-04  -7.0 3.22e-02    -  1.00e+00 1.00e+00h  1
 304  1.1935251e+02 1.40e-04 2.74e-03  -7.0 4.10e-02    -  7.04e-01 3.36e-01h  2
 305  1.1935256e+02 6.39e-06 4.11e-04  -7.0 3.78e-03    -  1.00e+00 1.00e+00h  1
 306  1.1935256e+02 1.67e-06 2.04e-04  -7.0 2.44e-03    -  1.00e+00 1.00e+00h  1
 307  1.1935256e+02 6.80e-08 1.16e-04  -7.0 9.09e-04    -  1.00e+00 1.00e+00h  1
 308  1.1935256e+02 7.44e-09 2.40e-05  -7.0 2.96e-04    -  1.00e+00 1.00e+00h  1
 309  1.1935256e+02 3.62e-10 9.85e-06  -7.0 8.53e-05    -  1.00e+00 1.00e+00h  1
iter    objective    inf_pr   inf_du lg(mu)  ||d||  lg(rg) alpha_du alpha_pr  ls
 310  1.1935256e+02 2.55e-10 6.66e-05  -7.0 1.07e-03    -  1.00e+00 1.00e+00H  1
 311  1.1935256e+02 8.45e-10 8.76e-04  -7.0 9.96e-03    -  1.00e+00 1.00e+00H  1
 312  1.1935256e+02 8.44e-10 8.75e-04  -7.0 4.17e-03    -  1.00e+00 9.77e-04h 11
 313  1.1935256e+02 2.24e-10 4.17e-04  -7.0 5.93e-03    -  1.00e+00 1.00e+00H  1
 314  1.1935256e+02 1.38e-05 1.55e-03  -7.0 4.90e-03    -  1.00e+00 1.00e+00h  1
 315  1.1935256e+02 1.09e-05 4.01e-05  -7.0 4.38e-03    -  1.00e+00 1.00e+00h  1
 316  1.1935256e+02 3.53e-10 2.40e-05  -7.0 1.26e-04    -  1.00e+00 1.00e+00h  1
 317  1.1935256e+02 9.23e-09 9.87e-06  -7.0 6.31e-04    -  1.00e+00 1.00e+00h  1
 318  1.1935256e+02 2.40e-08 2.87e-04  -7.0 1.89e-02    -  1.00e+00 6.25e-02h  5
 319  1.1935256e+02 1.17e-10 1.26e-04  -7.0 1.13e-02    -  1.00e+00 1.00e+00H  1
iter    objective    inf_pr   inf_du lg(mu)  ||d||  lg(rg) alpha_du alpha_pr  ls
 320  1.1935256e+02 6.24e-08 2.54e-04  -7.0 2.83e-03    -  1.00e+00 5.00e-01h  2
 321  1.1935256e+02 2.54e-09 2.40e-04  -7.0 6.18e-03    -  1.00e+00 1.00e+00H  1
 322  1.1935256e+02 4.20e-08 3.87e-04  -7.0 6.85e-03    -  1.00e+00 2.50e-01h  3
 323  1.1935256e+02 2.62e-10 1.46e-04  -7.0 7.46e-03    -  1.00e+00 1.00e+00H  1
 324  1.1935256e+02 1.17e-07 3.58e-04  -7.0 2.18e-02    -  1.00e+00 1.25e-01h  4
 325  1.1935256e+02 3.74e-10 2.36e-04  -7.0 3.41e-03    -  1.00e+00 1.00e+00H  1
 326  1.1935256e+02 3.57e-07 1.07e-04  -7.0 5.18e-03    -  1.00e+00 1.00e+00h  1
 327  1.1935256e+02 2.11e-06 3.11e-04  -7.0 5.00e-03    -  1.00e+00 1.00e+00h  1
 328  1.1935256e+02 8.30e-07 3.29e-05  -7.0 6.94e-03    -  1.00e+00 1.00e+00h  1
 329  1.1935256e+02 5.03e-08 8.41e-05  -7.0 1.66e-03    -  1.00e+00 1.00e+00h  1
iter    objective    inf_pr   inf_du lg(mu)  ||d||  lg(rg) alpha_du alpha_pr  ls
 330  1.1935256e+02 1.19e-08 4.65e-06  -7.0 7.95e-04    -  1.00e+00 1.00e+00h  1
 331  1.1935256e+02 1.91e-10 6.82e-06  -7.0 1.14e-04    -  1.00e+00 1.00e+00h  1
 332  1.1935256e+02 3.76e-09 5.25e-06  -7.0 5.02e-04    -  1.00e+00 1.00e+00h  1
 333  1.1935256e+02 4.75e-10 1.90e-04  -7.0 2.72e-02    -  1.00e+00 1.00e+00H  1
 334  1.1935256e+02 6.88e-06 2.16e-04  -7.0 3.92e-03    -  1.00e+00 1.00e+00h  1
 335  1.1935256e+02 5.25e-06 1.22e-04  -7.0 1.84e-02    -  1.00e+00 1.00e+00h  1
 336  1.1935256e+02 3.94e-06 6.46e-04  -7.0 5.30e-03    -  1.00e+00 2.50e-01h  3
 337  1.1935256e+02 1.10e-07 4.98e-05  -7.0 2.10e-03    -  1.00e+00 1.00e+00h  1
 338  1.1935256e+02 1.32e-09 5.07e-05  -7.0 2.11e-04    -  1.00e+00 1.00e+00h  1
 339  1.1935256e+02 7.04e-10 1.72e-05  -7.0 1.18e-04    -  1.00e+00 1.00e+00h  1
iter    objective    inf_pr   inf_du lg(mu)  ||d||  lg(rg) alpha_du alpha_pr  ls
 340  1.1935256e+02 1.96e-09 1.17e-05  -7.0 1.53e-04    -  1.00e+00 1.00e+00h  1
 341  1.1935256e+02 8.13e-09 4.97e-05  -7.0 6.07e-04    -  1.00e+00 1.00e+00h  1
 342  1.1935256e+02 2.70e-09 7.19e-05  -7.0 3.08e-03    -  1.00e+00 1.00e+00H  1
 343  1.1935256e+02 3.00e-08 4.88e-05  -7.0 7.36e-04    -  1.00e+00 1.00e+00h  1
 344  1.1935256e+02 2.13e-08 4.72e-05  -7.0 9.25e-04    -  1.00e+00 1.00e+00h  1
 345  1.1935256e+02 9.32e-09 2.98e-05  -7.0 6.86e-04    -  1.00e+00 1.00e+00h  1
 346  1.1935256e+02 2.42e-10 1.92e-05  -7.0 1.12e-03    -  1.00e+00 1.00e+00H  1
 347  1.1935256e+02 8.29e-09 3.70e-05  -7.0 9.64e-04    -  1.00e+00 1.00e+00h  1
 348  1.1935256e+02 1.98e-09 3.98e-05  -7.0 2.81e-04    -  1.00e+00 1.00e+00h  1
 349  1.1935256e+02 1.07e-09 1.72e-05  -7.0 2.38e-04    -  1.00e+00 1.00e+00h  1
iter    objective    inf_pr   inf_du lg(mu)  ||d||  lg(rg) alpha_du alpha_pr  ls
 350  1.1935256e+02 2.45e-09 8.10e-06  -7.0 5.42e-04    -  1.00e+00 1.00e+00h  1
 351  1.1935256e+02 1.87e-10 1.32e-04  -7.0 1.64e-02    -  1.00e+00 1.00e+00H  1
 352  1.1935256e+02 1.72e-10 1.51e-04  -7.0 3.28e-02    -  1.00e+00 2.33e-10h 33
 353  1.1935256e+02 1.77e-10 1.32e-04  -7.0 2.48e-03    -  1.00e+00 7.45e-09h 28
 354  1.1935256e+02 6.69e-11 1.03e-04  -7.0 7.86e-03    -  1.00e+00 1.00e+00H  1
 355  1.1935256e+02 3.98e-08 3.27e-04  -7.0 4.61e-03    -  1.00e+00 2.50e-01h  3
 356  1.1935256e+02 4.06e-07 2.60e-05  -7.0 6.83e-03    -  1.00e+00 1.00e+00h  1
 357  1.1935256e+02 2.12e-07 7.68e-05  -7.0 2.14e-03    -  1.00e+00 5.00e-01h  2
 358  1.1935256e+02 6.43e-09 7.48e-06  -7.0 6.89e-04    -  1.00e+00 1.00e+00h  1
 359  1.1935256e+02 6.79e-10 6.89e-06  -7.0 2.06e-04    -  1.00e+00 1.00e+00h  1
iter    objective    inf_pr   inf_du lg(mu)  ||d||  lg(rg) alpha_du alpha_pr  ls
 360  1.1935256e+02 3.45e-10 3.25e-05  -7.0 3.24e-03    -  1.00e+00 1.00e+00H  1
 361  1.1935256e+02 9.09e-09 7.15e-05  -7.0 6.21e-03    -  1.00e+00 1.25e-01h  4
 362  1.1935256e+02 1.45e-09 6.22e-05  -7.0 2.69e-03    -  1.00e+00 1.00e+00H  1
 363  1.1935256e+02 3.80e-08 1.45e-04  -7.0 1.48e-03    -  1.00e+00 1.00e+00h  1
 364  1.1935256e+02 4.61e-08 2.33e-05  -7.0 1.35e-03    -  1.00e+00 1.00e+00h  1
 365  1.1935256e+02 2.44e-08 3.21e-05  -7.0 1.28e-03    -  1.00e+00 5.00e-01h  2
 366  1.1935256e+02 1.11e-08 3.48e-05  -7.0 1.07e-03    -  1.00e+00 1.00e+00h  1
 367  1.1935256e+02 7.07e-11 8.86e-05  -7.0 4.14e-03    -  1.00e+00 1.00e+00H  1
 368  1.1935256e+02 3.73e-08 8.18e-05  -7.0 1.71e-03    -  1.00e+00 1.00e+00h  1
 369  1.1935256e+02 1.04e-10 3.78e-05  -7.0 2.17e-03    -  1.00e+00 1.00e+00H  1
iter    objective    inf_pr   inf_du lg(mu)  ||d||  lg(rg) alpha_du alpha_pr  ls
 370  1.1935256e+02 4.55e-11 8.71e-05  -7.0 1.13e-03    -  1.00e+00 1.00e+00H  1
 371  1.1935256e+02 1.10e-08 1.64e-05  -7.0 1.01e-03    -  1.00e+00 1.00e+00h  1
 372  1.1935256e+02 9.44e-09 2.08e-05  -7.0 1.32e-03    -  1.00e+00 1.00e+00h  1
 373  1.1935256e+02 1.54e-09 4.11e-05  -7.0 5.01e-03    -  1.00e+00 1.00e+00H  1
 374  1.1935256e+02 1.54e-09 5.65e-05  -7.0 1.68e-02    -  1.00e+00 1.95e-03h 10
 375  1.1935256e+02 2.59e-05 5.80e-04  -7.0 7.16e-02    -  1.00e+00 1.00e+00h  1
 376  1.1935255e+02 1.57e-05 3.30e-04  -7.0 5.40e-02    -  1.00e+00 1.00e+00h  1
 377  1.1935255e+02 1.28e-04 4.53e-03  -7.0 6.96e-02    -  1.00e+00 1.00e+00h  1
 378  1.1935249e+02 1.41e-04 5.59e-04  -7.0 7.06e-02    -  1.00e+00 1.00e+00h  1
 379  1.1935255e+02 5.33e-05 2.65e-03  -7.0 9.28e-03    -  1.00e+00 1.00e+00h  1
iter    objective    inf_pr   inf_du lg(mu)  ||d||  lg(rg) alpha_du alpha_pr  ls
 380  1.1935255e+02 3.73e-05 8.66e-05  -7.0 7.82e-03    -  1.00e+00 1.00e+00h  1
 381  1.1935256e+02 3.71e-09 6.46e-05  -7.0 1.97e-04    -  1.00e+00 1.00e+00h  1
 382  1.1935256e+02 1.97e-10 2.74e-06  -7.0 8.70e-05    -  1.00e+00 1.00e+00h  1
 383  1.1935256e+02 8.78e-11 3.59e-06  -7.0 5.90e-05    -  1.00e+00 1.00e+00h  1
 384  1.1935256e+02 4.99e-11 4.49e-06  -7.0 4.26e-04    -  1.00e+00 1.00e+00H  1
 385  1.1935256e+02 4.55e-11 5.78e-05  -7.0 2.82e-03    -  1.00e+00 1.00e+00H  1
 386  1.1935256e+02 1.95e-08 2.29e-05  -7.0 4.42e-04    -  1.00e+00 1.00e+00h  1
 387  1.1935256e+02 5.71e-08 1.48e-05  -7.0 1.49e-03    -  1.00e+00 1.00e+00h  1
 388  1.1935256e+02 5.94e-09 3.81e-05  -7.0 3.83e-04    -  1.00e+00 1.00e+00h  1
 389  1.1935256e+02 2.75e-09 3.41e-06  -7.0 1.91e-04    -  1.00e+00 1.00e+00h  1
iter    objective    inf_pr   inf_du lg(mu)  ||d||  lg(rg) alpha_du alpha_pr  ls
 390  1.1935256e+02 5.60e-10 1.15e-06  -7.0 1.52e-04    -  1.00e+00 1.00e+00h  1
 391  1.1935256e+02 9.86e-11 1.05e-04  -7.0 7.19e-03    -  1.00e+00 1.00e+00H  1
 392  1.1935256e+02 1.22e-06 2.05e-04  -7.0 8.05e-03    -  1.00e+00 1.00e+00h  1
 393  1.1935256e+02 1.79e-06 9.27e-05  -7.0 1.36e-02    -  1.00e+00 5.00e-01h  2
 394  1.1935256e+02 2.17e-06 3.41e-04  -7.0 4.16e-02    -  1.00e+00 1.25e-01h  4
 395  1.1935256e+02 1.80e-06 3.89e-04  -7.0 4.36e-03    -  1.00e+00 5.00e-01h  2
 396  1.1935256e+02 3.64e-07 5.37e-05  -7.0 4.48e-03    -  1.00e+00 1.00e+00h  1
 397  1.1935256e+02 3.45e-08 1.65e-04  -7.0 1.15e-03    -  1.00e+00 1.00e+00h  1
 398  1.1935256e+02 2.65e-08 4.78e-06  -7.0 9.64e-04    -  1.00e+00 1.00e+00h  1
 399  1.1935256e+02 5.41e-11 2.43e-06  -7.0 1.79e-05    -  1.00e+00 1.00e+00h  1
iter    objective    inf_pr   inf_du lg(mu)  ||d||  lg(rg) alpha_du alpha_pr  ls
 400  1.1935256e+02 8.22e-10 2.48e-06  -7.0 1.34e-04    -  1.00e+00 1.00e+00h  1
 401  1.1935256e+02 2.88e-10 3.75e-05  -7.0 1.17e-03    -  1.00e+00 1.00e+00H  1
 402  1.1935256e+02 6.04e-09 1.80e-05  -7.0 3.42e-04    -  1.00e+00 1.00e+00h  1
 403  1.1935256e+02 3.40e-09 2.19e-05  -7.0 3.31e-04    -  1.00e+00 1.00e+00h  1
 404  1.1935256e+02 8.34e-10 1.10e-05  -7.0 1.27e-04    -  1.00e+00 1.00e+00h  1
 405  1.1935256e+02 4.83e-11 2.26e-06  -7.0 1.10e-04    -  1.00e+00 1.00e+00H  1
 406  1.1935256e+02 9.37e-11 2.23e-06  -7.0 9.44e-05    -  1.00e+00 1.00e+00h  1
 407  1.1935256e+02 3.06e-10 2.48e-05  -7.0 3.59e-03    -  1.00e+00 1.00e+00H  1
Restoration phase is called at point that is almost feasible,
  with constraint violation 4.438265e-09. Abort.

Number of Iterations....: 407

                                   (scaled)                 (unscaled)
Objective...............:   1.1935255838755954e+02    1.1935255838755954e+02
Dual infeasibility......:   2.4778490363589244e-05    2.4778490363589244e-05
Constraint violation....:   3.0601569278587702e-10    3.0601569278587702e-10
Complementarity.........:   9.0909090914701674e-08    9.0909090914701674e-08
Overall NLP error.......:   2.4778490363589244e-05    2.4778490363589244e-05


Number of objective function evaluations             = 1055
Number of objective gradient evaluations             = 409
Number of equality constraint evaluations            = 1055
Number of inequality constraint evaluations          = 1055
Number of equality constraint Jacobian evaluations   = 409
Number of inequality constraint Jacobian evaluations = 409
Number of Lagrangian Hessian evaluations             = 0
Total CPU secs in IPOPT (w/o function evaluations)   =    309.212
Total CPU secs in NLP function evaluations           =   6778.670

EXIT: Restoration Failed!
